Gurobi 12.0.1:   lim:time = 14400
  mip:bestbound = 1
Set parameter LogToConsole to value 1
  tech:outlev = 1
Set parameter Cuts to value 3
  cut:cuts = 3
Set parameter Presolve to value 2
  pre:solve = 2
Set parameter MIPFocus to value 2
  mip:focus = 2
Set parameter Symmetry to value 2
  mip:symmetry = 2
Set parameter InfUnbdInfo to value 1
Gurobi Optimizer version 12.0.1 build v12.0.1rc0 (win64 - Windows 11.0 (26100.2))

CPU model: Intel(R) Core(TM) i7-10700 CPU @ 2.90GHz, instruction set [SSE2|AVX|AVX2]
Thread count: 8 physical cores, 16 logical processors, using up to 16 threads

Non-default parameters:
TimeLimit  14400
MIPFocus  2
Symmetry  2
Cuts  3
InfUnbdInfo  1
Presolve  2

Optimize a model with 358 rows, 695 columns and 3926 nonzeros
Model fingerprint: 0x525bafaa
Model has 2 quadratic objective terms
Model has 5 quadratic constraints
Variable types: 36 continuous, 659 integer (0 binary)
Coefficient statistics:
  Matrix range     [1e+00, 1e+05]
  QMatrix range    [1e+00, 1e+00]
  QLMatrix range   [1e+00, 1e+01]
  Objective range  [3e+00, 1e+02]
  QObjective range [2e+00, 2e+00]
  Bounds range     [1e+00, 1e+02]
  RHS range        [1e+00, 1e+05]
  QRHS range       [1e+02, 1e+02]
Presolve removed 27 rows and 62 columns
Presolve time: 0.07s
Presolved: 731 rows, 1025 columns, 6179 nonzeros
Variable types: 95 continuous, 930 integer (765 binary)
Found heuristic solution: objective 541.2900000
Root relaxation presolve removed 17 rows and 2 columns
Root relaxation presolved: 552 rows, 863 columns, 8443 nonzeros


Root relaxation: objective 8.095254e+01, 117 iterations, 0.01 seconds (0.01 work units)

    Nodes    |    Current Node    |     Objective Bounds      |     Work
 Expl Unexpl |  Obj  Depth IntInf | Incumbent    BestBd   Gap | It/Node Time

     0     0   80.95254    0   35  541.29000   80.95254  85.0%     -    0s
H    0     0                     423.4100000   80.95254  80.9%     -    0s
     0     0  133.95000    0   71  423.41000  133.95000  68.4%     -    0s
H    0     0                     389.2400000  133.95000  65.6%     -    0s
     0     0  133.95000    0   47  389.24000  133.95000  65.6%     -    0s
     0     0  133.95000    0   48  389.24000  133.95000  65.6%     -    0s
     0     0  134.28500    0   50  389.24000  134.28500  65.5%     -    0s
H    0     0                     386.4100000  149.58255  61.3%     -    0s
     0     0  149.58255    0   38  386.41000  149.58255  61.3%     -    0s
H    0     0                     378.1500000  149.58255  60.4%     -    0s
H    0     0                     376.7900000  149.58255  60.3%     -    0s
H    0     0                     335.3900000  156.46613  53.3%     -    0s
H    0     0                     327.2000000  156.46613  52.2%     -    0s
H    0     0                     327.0700000  156.46613  52.2%     -    0s
     0     0  166.81923    0   64  327.07000  166.81923  49.0%     -    0s
     0     0  167.30531    0   64  327.07000  167.30531  48.8%     -    0s
     0     0  177.19219    0   74  327.07000  177.19219  45.8%     -    0s
     0     0  177.19219    0   74  327.07000  177.19219  45.8%     -    0s
     0     2  177.19219    0   74  327.07000  177.19219  45.8%     -    0s
H  128   140                     296.3100000  177.19219  40.2%  17.3    0s
H  183   184                     295.5500000  177.19219  40.0%  14.7    0s
H  184   184                     283.7000000  177.19219  37.5%  14.6    0s
* 2902  1129              18     279.4900000  200.24510  28.4%  12.8    1s
H 3043  1027                     269.6500000  200.56483  25.6%  13.2    1s
H 3888  1116                     267.1700000  209.82286  21.5%  14.0    2s
  4080  1202  260.90000   41   39  267.17000  246.74608  7.64%  15.7    5s

Cutting planes:
  Learned: 6
  Gomory: 13
  Lift-and-project: 6
  Cover: 9
  Implied bound: 9
  Projected implied bound: 2
  Clique: 20
  MIR: 15
  Mixing: 6
  Flow cover: 103
  GUB cover: 1
  Inf proof: 5
  Zero half: 16
  RLT: 2
  Relax-and-lift: 3

Explored 8684 nodes (126563 simplex iterations) in 5.77 seconds (5.37 work units)
Thread count was 16 (of 16 available processors)

Solution count 10: 267.17 269.65 279.49 ... 376.79

Optimal solution found (tolerance 1.00e-04)
Best objective 2.671700000000e+02, best bound 2.671700000000e+02, gap 0.0000%

AMPL MP initial flat model has 695 variables (0 integer, 659 binary);
Objectives: 1 quadratic; 
Constraints:  358 linear; 5 quadratic;

AMPL MP final model has 695 variables (0 integer, 659 binary);
Objectives: 1 quadratic; 
Constraints:  358 linear; 5 quadratic;


-----RESULTS INFO-----
running_time:  5.844
TC.best_bound:  267.17
TC:  267.16999999999996
MIP Gap (%):  2.1276123389904564e-14
=== Vehicle Routes ===
Vehicle 1: 0 → 3
Vehicle 1: 2 → 17
Vehicle 1: 3 → 13
Vehicle 1: 13 → 15
Vehicle 1: 15 → 2
Vehicle 2: 0 → 1
Vehicle 2: 1 → 17
Vehicle 3: 0 → 17

=== Full Vehicle Routes ===
Vehicle 1: 0 → 3 → 13 → 15 → 2 → 0 (88<100)
Vehicle 2: 0 → 1 → 0 (13<100)
Vehicle 3: 0 → 0 (0<100)
Arc used by MRT line: y variables:
Customer assigment to PL: u variables:
4 13
5 15
6 13
7 13
8 15
9 15
Node is served by regular vehicle: g variables:
1
2
3
13
15
Customer assigment to Home delivery: gm variables:
1
2
3
Node total demands: ntd variables:
1 13 1
2 13 1
3 12 1
7 0 0
8 0 0
9 0 0
16 0 0
10 0 0
11 0 0
12 0 0
13 45 1
14 0 0
15 18 1
Customer's demand delivered to PL: l variables:
4
5
6
7
8
9
Lockers load <= capacity:
0 <= 90
0 <= 83
0 <= 100
0 <= 70
45 <= 87
0 <= 73
18 <= 71
